c *********************************
c * Circuit generated by BenCGen
c *
c * CarrySaveAdder_109_109_109_109_110
c *
c * Ports with 1 gate(s): 2
c * Ports with 2 gate(s): 546
c * Total gates: 548
c *********************************
p cnf 875 1860
1 548 0
-1 -548 0
1 -547 0
548 -547 0
-1 -548 547 0
547 -437 0
-547 437 0
1 110 -549 0
-1 110 549 0
1 -110 549 0
-1 -110 -549 0
549 219 -328 0
-549 219 328 0
549 -219 328 0
-549 -219 -328 0
219 -550 0
549 -550 0
-219 -549 550 0
110 -551 0
1 -551 0
-110 -1 551 0
-550 438 0
-551 438 0
550 551 -438 0
2 111 -552 0
-2 111 552 0
2 -111 552 0
-2 -111 -552 0
552 220 -329 0
-552 220 329 0
552 -220 329 0
-552 -220 -329 0
220 -553 0
552 -553 0
-220 -552 553 0
111 -554 0
2 -554 0
-111 -2 554 0
-553 439 0
-554 439 0
553 554 -439 0
3 112 -555 0
-3 112 555 0
3 -112 555 0
-3 -112 -555 0
555 221 -330 0
-555 221 330 0
555 -221 330 0
-555 -221 -330 0
221 -556 0
555 -556 0
-221 -555 556 0
112 -557 0
3 -557 0
-112 -3 557 0
-556 440 0
-557 440 0
556 557 -440 0
4 113 -558 0
-4 113 558 0
4 -113 558 0
-4 -113 -558 0
558 222 -331 0
-558 222 331 0
558 -222 331 0
-558 -222 -331 0
222 -559 0
558 -559 0
-222 -558 559 0
113 -560 0
4 -560 0
-113 -4 560 0
-559 441 0
-560 441 0
559 560 -441 0
5 114 -561 0
-5 114 561 0
5 -114 561 0
-5 -114 -561 0
561 223 -332 0
-561 223 332 0
561 -223 332 0
-561 -223 -332 0
223 -562 0
561 -562 0
-223 -561 562 0
114 -563 0
5 -563 0
-114 -5 563 0
-562 442 0
-563 442 0
562 563 -442 0
6 115 -564 0
-6 115 564 0
6 -115 564 0
-6 -115 -564 0
564 224 -333 0
-564 224 333 0
564 -224 333 0
-564 -224 -333 0
224 -565 0
564 -565 0
-224 -564 565 0
115 -566 0
6 -566 0
-115 -6 566 0
-565 443 0
-566 443 0
565 566 -443 0
7 116 -567 0
-7 116 567 0
7 -116 567 0
-7 -116 -567 0
567 225 -334 0
-567 225 334 0
567 -225 334 0
-567 -225 -334 0
225 -568 0
567 -568 0
-225 -567 568 0
116 -569 0
7 -569 0
-116 -7 569 0
-568 444 0
-569 444 0
568 569 -444 0
8 117 -570 0
-8 117 570 0
8 -117 570 0
-8 -117 -570 0
570 226 -335 0
-570 226 335 0
570 -226 335 0
-570 -226 -335 0
226 -571 0
570 -571 0
-226 -570 571 0
117 -572 0
8 -572 0
-117 -8 572 0
-571 445 0
-572 445 0
571 572 -445 0
9 118 -573 0
-9 118 573 0
9 -118 573 0
-9 -118 -573 0
573 227 -336 0
-573 227 336 0
573 -227 336 0
-573 -227 -336 0
227 -574 0
573 -574 0
-227 -573 574 0
118 -575 0
9 -575 0
-118 -9 575 0
-574 446 0
-575 446 0
574 575 -446 0
10 119 -576 0
-10 119 576 0
10 -119 576 0
-10 -119 -576 0
576 228 -337 0
-576 228 337 0
576 -228 337 0
-576 -228 -337 0
228 -577 0
576 -577 0
-228 -576 577 0
119 -578 0
10 -578 0
-119 -10 578 0
-577 447 0
-578 447 0
577 578 -447 0
11 120 -579 0
-11 120 579 0
11 -120 579 0
-11 -120 -579 0
579 229 -338 0
-579 229 338 0
579 -229 338 0
-579 -229 -338 0
229 -580 0
579 -580 0
-229 -579 580 0
120 -581 0
11 -581 0
-120 -11 581 0
-580 448 0
-581 448 0
580 581 -448 0
12 121 -582 0
-12 121 582 0
12 -121 582 0
-12 -121 -582 0
582 230 -339 0
-582 230 339 0
582 -230 339 0
-582 -230 -339 0
230 -583 0
582 -583 0
-230 -582 583 0
121 -584 0
12 -584 0
-121 -12 584 0
-583 449 0
-584 449 0
583 584 -449 0
13 122 -585 0
-13 122 585 0
13 -122 585 0
-13 -122 -585 0
585 231 -340 0
-585 231 340 0
585 -231 340 0
-585 -231 -340 0
231 -586 0
585 -586 0
-231 -585 586 0
122 -587 0
13 -587 0
-122 -13 587 0
-586 450 0
-587 450 0
586 587 -450 0
14 123 -588 0
-14 123 588 0
14 -123 588 0
-14 -123 -588 0
588 232 -341 0
-588 232 341 0
588 -232 341 0
-588 -232 -341 0
232 -589 0
588 -589 0
-232 -588 589 0
123 -590 0
14 -590 0
-123 -14 590 0
-589 451 0
-590 451 0
589 590 -451 0
15 124 -591 0
-15 124 591 0
15 -124 591 0
-15 -124 -591 0
591 233 -342 0
-591 233 342 0
591 -233 342 0
-591 -233 -342 0
233 -592 0
591 -592 0
-233 -591 592 0
124 -593 0
15 -593 0
-124 -15 593 0
-592 452 0
-593 452 0
592 593 -452 0
16 125 -594 0
-16 125 594 0
16 -125 594 0
-16 -125 -594 0
594 234 -343 0
-594 234 343 0
594 -234 343 0
-594 -234 -343 0
234 -595 0
594 -595 0
-234 -594 595 0
125 -596 0
16 -596 0
-125 -16 596 0
-595 453 0
-596 453 0
595 596 -453 0
17 126 -597 0
-17 126 597 0
17 -126 597 0
-17 -126 -597 0
597 235 -344 0
-597 235 344 0
597 -235 344 0
-597 -235 -344 0
235 -598 0
597 -598 0
-235 -597 598 0
126 -599 0
17 -599 0
-126 -17 599 0
-598 454 0
-599 454 0
598 599 -454 0
18 127 -600 0
-18 127 600 0
18 -127 600 0
-18 -127 -600 0
600 236 -345 0
-600 236 345 0
600 -236 345 0
-600 -236 -345 0
236 -601 0
600 -601 0
-236 -600 601 0
127 -602 0
18 -602 0
-127 -18 602 0
-601 455 0
-602 455 0
601 602 -455 0
19 128 -603 0
-19 128 603 0
19 -128 603 0
-19 -128 -603 0
603 237 -346 0
-603 237 346 0
603 -237 346 0
-603 -237 -346 0
237 -604 0
603 -604 0
-237 -603 604 0
128 -605 0
19 -605 0
-128 -19 605 0
-604 456 0
-605 456 0
604 605 -456 0
20 129 -606 0
-20 129 606 0
20 -129 606 0
-20 -129 -606 0
606 238 -347 0
-606 238 347 0
606 -238 347 0
-606 -238 -347 0
238 -607 0
606 -607 0
-238 -606 607 0
129 -608 0
20 -608 0
-129 -20 608 0
-607 457 0
-608 457 0
607 608 -457 0
21 130 -609 0
-21 130 609 0
21 -130 609 0
-21 -130 -609 0
609 239 -348 0
-609 239 348 0
609 -239 348 0
-609 -239 -348 0
239 -610 0
609 -610 0
-239 -609 610 0
130 -611 0
21 -611 0
-130 -21 611 0
-610 458 0
-611 458 0
610 611 -458 0
22 131 -612 0
-22 131 612 0
22 -131 612 0
-22 -131 -612 0
612 240 -349 0
-612 240 349 0
612 -240 349 0
-612 -240 -349 0
240 -613 0
612 -613 0
-240 -612 613 0
131 -614 0
22 -614 0
-131 -22 614 0
-613 459 0
-614 459 0
613 614 -459 0
23 132 -615 0
-23 132 615 0
23 -132 615 0
-23 -132 -615 0
615 241 -350 0
-615 241 350 0
615 -241 350 0
-615 -241 -350 0
241 -616 0
615 -616 0
-241 -615 616 0
132 -617 0
23 -617 0
-132 -23 617 0
-616 460 0
-617 460 0
616 617 -460 0
24 133 -618 0
-24 133 618 0
24 -133 618 0
-24 -133 -618 0
618 242 -351 0
-618 242 351 0
618 -242 351 0
-618 -242 -351 0
242 -619 0
618 -619 0
-242 -618 619 0
133 -620 0
24 -620 0
-133 -24 620 0
-619 461 0
-620 461 0
619 620 -461 0
25 134 -621 0
-25 134 621 0
25 -134 621 0
-25 -134 -621 0
621 243 -352 0
-621 243 352 0
621 -243 352 0
-621 -243 -352 0
243 -622 0
621 -622 0
-243 -621 622 0
134 -623 0
25 -623 0
-134 -25 623 0
-622 462 0
-623 462 0
622 623 -462 0
26 135 -624 0
-26 135 624 0
26 -135 624 0
-26 -135 -624 0
624 244 -353 0
-624 244 353 0
624 -244 353 0
-624 -244 -353 0
244 -625 0
624 -625 0
-244 -624 625 0
135 -626 0
26 -626 0
-135 -26 626 0
-625 463 0
-626 463 0
625 626 -463 0
27 136 -627 0
-27 136 627 0
27 -136 627 0
-27 -136 -627 0
627 245 -354 0
-627 245 354 0
627 -245 354 0
-627 -245 -354 0
245 -628 0
627 -628 0
-245 -627 628 0
136 -629 0
27 -629 0
-136 -27 629 0
-628 464 0
-629 464 0
628 629 -464 0
28 137 -630 0
-28 137 630 0
28 -137 630 0
-28 -137 -630 0
630 246 -355 0
-630 246 355 0
630 -246 355 0
-630 -246 -355 0
246 -631 0
630 -631 0
-246 -630 631 0
137 -632 0
28 -632 0
-137 -28 632 0
-631 465 0
-632 465 0
631 632 -465 0
29 138 -633 0
-29 138 633 0
29 -138 633 0
-29 -138 -633 0
633 247 -356 0
-633 247 356 0
633 -247 356 0
-633 -247 -356 0
247 -634 0
633 -634 0
-247 -633 634 0
138 -635 0
29 -635 0
-138 -29 635 0
-634 466 0
-635 466 0
634 635 -466 0
30 139 -636 0
-30 139 636 0
30 -139 636 0
-30 -139 -636 0
636 248 -357 0
-636 248 357 0
636 -248 357 0
-636 -248 -357 0
248 -637 0
636 -637 0
-248 -636 637 0
139 -638 0
30 -638 0
-139 -30 638 0
-637 467 0
-638 467 0
637 638 -467 0
31 140 -639 0
-31 140 639 0
31 -140 639 0
-31 -140 -639 0
639 249 -358 0
-639 249 358 0
639 -249 358 0
-639 -249 -358 0
249 -640 0
639 -640 0
-249 -639 640 0
140 -641 0
31 -641 0
-140 -31 641 0
-640 468 0
-641 468 0
640 641 -468 0
32 141 -642 0
-32 141 642 0
32 -141 642 0
-32 -141 -642 0
642 250 -359 0
-642 250 359 0
642 -250 359 0
-642 -250 -359 0
250 -643 0
642 -643 0
-250 -642 643 0
141 -644 0
32 -644 0
-141 -32 644 0
-643 469 0
-644 469 0
643 644 -469 0
33 142 -645 0
-33 142 645 0
33 -142 645 0
-33 -142 -645 0
645 251 -360 0
-645 251 360 0
645 -251 360 0
-645 -251 -360 0
251 -646 0
645 -646 0
-251 -645 646 0
142 -647 0
33 -647 0
-142 -33 647 0
-646 470 0
-647 470 0
646 647 -470 0
34 143 -648 0
-34 143 648 0
34 -143 648 0
-34 -143 -648 0
648 252 -361 0
-648 252 361 0
648 -252 361 0
-648 -252 -361 0
252 -649 0
648 -649 0
-252 -648 649 0
143 -650 0
34 -650 0
-143 -34 650 0
-649 471 0
-650 471 0
649 650 -471 0
35 144 -651 0
-35 144 651 0
35 -144 651 0
-35 -144 -651 0
651 253 -362 0
-651 253 362 0
651 -253 362 0
-651 -253 -362 0
253 -652 0
651 -652 0
-253 -651 652 0
144 -653 0
35 -653 0
-144 -35 653 0
-652 472 0
-653 472 0
652 653 -472 0
36 145 -654 0
-36 145 654 0
36 -145 654 0
-36 -145 -654 0
654 254 -363 0
-654 254 363 0
654 -254 363 0
-654 -254 -363 0
254 -655 0
654 -655 0
-254 -654 655 0
145 -656 0
36 -656 0
-145 -36 656 0
-655 473 0
-656 473 0
655 656 -473 0
37 146 -657 0
-37 146 657 0
37 -146 657 0
-37 -146 -657 0
657 255 -364 0
-657 255 364 0
657 -255 364 0
-657 -255 -364 0
255 -658 0
657 -658 0
-255 -657 658 0
146 -659 0
37 -659 0
-146 -37 659 0
-658 474 0
-659 474 0
658 659 -474 0
38 147 -660 0
-38 147 660 0
38 -147 660 0
-38 -147 -660 0
660 256 -365 0
-660 256 365 0
660 -256 365 0
-660 -256 -365 0
256 -661 0
660 -661 0
-256 -660 661 0
147 -662 0
38 -662 0
-147 -38 662 0
-661 475 0
-662 475 0
661 662 -475 0
39 148 -663 0
-39 148 663 0
39 -148 663 0
-39 -148 -663 0
663 257 -366 0
-663 257 366 0
663 -257 366 0
-663 -257 -366 0
257 -664 0
663 -664 0
-257 -663 664 0
148 -665 0
39 -665 0
-148 -39 665 0
-664 476 0
-665 476 0
664 665 -476 0
40 149 -666 0
-40 149 666 0
40 -149 666 0
-40 -149 -666 0
666 258 -367 0
-666 258 367 0
666 -258 367 0
-666 -258 -367 0
258 -667 0
666 -667 0
-258 -666 667 0
149 -668 0
40 -668 0
-149 -40 668 0
-667 477 0
-668 477 0
667 668 -477 0
41 150 -669 0
-41 150 669 0
41 -150 669 0
-41 -150 -669 0
669 259 -368 0
-669 259 368 0
669 -259 368 0
-669 -259 -368 0
259 -670 0
669 -670 0
-259 -669 670 0
150 -671 0
41 -671 0
-150 -41 671 0
-670 478 0
-671 478 0
670 671 -478 0
42 151 -672 0
-42 151 672 0
42 -151 672 0
-42 -151 -672 0
672 260 -369 0
-672 260 369 0
672 -260 369 0
-672 -260 -369 0
260 -673 0
672 -673 0
-260 -672 673 0
151 -674 0
42 -674 0
-151 -42 674 0
-673 479 0
-674 479 0
673 674 -479 0
43 152 -675 0
-43 152 675 0
43 -152 675 0
-43 -152 -675 0
675 261 -370 0
-675 261 370 0
675 -261 370 0
-675 -261 -370 0
261 -676 0
675 -676 0
-261 -675 676 0
152 -677 0
43 -677 0
-152 -43 677 0
-676 480 0
-677 480 0
676 677 -480 0
44 153 -678 0
-44 153 678 0
44 -153 678 0
-44 -153 -678 0
678 262 -371 0
-678 262 371 0
678 -262 371 0
-678 -262 -371 0
262 -679 0
678 -679 0
-262 -678 679 0
153 -680 0
44 -680 0
-153 -44 680 0
-679 481 0
-680 481 0
679 680 -481 0
45 154 -681 0
-45 154 681 0
45 -154 681 0
-45 -154 -681 0
681 263 -372 0
-681 263 372 0
681 -263 372 0
-681 -263 -372 0
263 -682 0
681 -682 0
-263 -681 682 0
154 -683 0
45 -683 0
-154 -45 683 0
-682 482 0
-683 482 0
682 683 -482 0
46 155 -684 0
-46 155 684 0
46 -155 684 0
-46 -155 -684 0
684 264 -373 0
-684 264 373 0
684 -264 373 0
-684 -264 -373 0
264 -685 0
684 -685 0
-264 -684 685 0
155 -686 0
46 -686 0
-155 -46 686 0
-685 483 0
-686 483 0
685 686 -483 0
47 156 -687 0
-47 156 687 0
47 -156 687 0
-47 -156 -687 0
687 265 -374 0
-687 265 374 0
687 -265 374 0
-687 -265 -374 0
265 -688 0
687 -688 0
-265 -687 688 0
156 -689 0
47 -689 0
-156 -47 689 0
-688 484 0
-689 484 0
688 689 -484 0
48 157 -690 0
-48 157 690 0
48 -157 690 0
-48 -157 -690 0
690 266 -375 0
-690 266 375 0
690 -266 375 0
-690 -266 -375 0
266 -691 0
690 -691 0
-266 -690 691 0
157 -692 0
48 -692 0
-157 -48 692 0
-691 485 0
-692 485 0
691 692 -485 0
49 158 -693 0
-49 158 693 0
49 -158 693 0
-49 -158 -693 0
693 267 -376 0
-693 267 376 0
693 -267 376 0
-693 -267 -376 0
267 -694 0
693 -694 0
-267 -693 694 0
158 -695 0
49 -695 0
-158 -49 695 0
-694 486 0
-695 486 0
694 695 -486 0
50 159 -696 0
-50 159 696 0
50 -159 696 0
-50 -159 -696 0
696 268 -377 0
-696 268 377 0
696 -268 377 0
-696 -268 -377 0
268 -697 0
696 -697 0
-268 -696 697 0
159 -698 0
50 -698 0
-159 -50 698 0
-697 487 0
-698 487 0
697 698 -487 0
51 160 -699 0
-51 160 699 0
51 -160 699 0
-51 -160 -699 0
699 269 -378 0
-699 269 378 0
699 -269 378 0
-699 -269 -378 0
269 -700 0
699 -700 0
-269 -699 700 0
160 -701 0
51 -701 0
-160 -51 701 0
-700 488 0
-701 488 0
700 701 -488 0
52 161 -702 0
-52 161 702 0
52 -161 702 0
-52 -161 -702 0
702 270 -379 0
-702 270 379 0
702 -270 379 0
-702 -270 -379 0
270 -703 0
702 -703 0
-270 -702 703 0
161 -704 0
52 -704 0
-161 -52 704 0
-703 489 0
-704 489 0
703 704 -489 0
53 162 -705 0
-53 162 705 0
53 -162 705 0
-53 -162 -705 0
705 271 -380 0
-705 271 380 0
705 -271 380 0
-705 -271 -380 0
271 -706 0
705 -706 0
-271 -705 706 0
162 -707 0
53 -707 0
-162 -53 707 0
-706 490 0
-707 490 0
706 707 -490 0
54 163 -708 0
-54 163 708 0
54 -163 708 0
-54 -163 -708 0
708 272 -381 0
-708 272 381 0
708 -272 381 0
-708 -272 -381 0
272 -709 0
708 -709 0
-272 -708 709 0
163 -710 0
54 -710 0
-163 -54 710 0
-709 491 0
-710 491 0
709 710 -491 0
55 164 -711 0
-55 164 711 0
55 -164 711 0
-55 -164 -711 0
711 273 -382 0
-711 273 382 0
711 -273 382 0
-711 -273 -382 0
273 -712 0
711 -712 0
-273 -711 712 0
164 -713 0
55 -713 0
-164 -55 713 0
-712 492 0
-713 492 0
712 713 -492 0
56 165 -714 0
-56 165 714 0
56 -165 714 0
-56 -165 -714 0
714 274 -383 0
-714 274 383 0
714 -274 383 0
-714 -274 -383 0
274 -715 0
714 -715 0
-274 -714 715 0
165 -716 0
56 -716 0
-165 -56 716 0
-715 493 0
-716 493 0
715 716 -493 0
57 166 -717 0
-57 166 717 0
57 -166 717 0
-57 -166 -717 0
717 275 -384 0
-717 275 384 0
717 -275 384 0
-717 -275 -384 0
275 -718 0
717 -718 0
-275 -717 718 0
166 -719 0
57 -719 0
-166 -57 719 0
-718 494 0
-719 494 0
718 719 -494 0
58 167 -720 0
-58 167 720 0
58 -167 720 0
-58 -167 -720 0
720 276 -385 0
-720 276 385 0
720 -276 385 0
-720 -276 -385 0
276 -721 0
720 -721 0
-276 -720 721 0
167 -722 0
58 -722 0
-167 -58 722 0
-721 495 0
-722 495 0
721 722 -495 0
59 168 -723 0
-59 168 723 0
59 -168 723 0
-59 -168 -723 0
723 277 -386 0
-723 277 386 0
723 -277 386 0
-723 -277 -386 0
277 -724 0
723 -724 0
-277 -723 724 0
168 -725 0
59 -725 0
-168 -59 725 0
-724 496 0
-725 496 0
724 725 -496 0
60 169 -726 0
-60 169 726 0
60 -169 726 0
-60 -169 -726 0
726 278 -387 0
-726 278 387 0
726 -278 387 0
-726 -278 -387 0
278 -727 0
726 -727 0
-278 -726 727 0
169 -728 0
60 -728 0
-169 -60 728 0
-727 497 0
-728 497 0
727 728 -497 0
61 170 -729 0
-61 170 729 0
61 -170 729 0
-61 -170 -729 0
729 279 -388 0
-729 279 388 0
729 -279 388 0
-729 -279 -388 0
279 -730 0
729 -730 0
-279 -729 730 0
170 -731 0
61 -731 0
-170 -61 731 0
-730 498 0
-731 498 0
730 731 -498 0
62 171 -732 0
-62 171 732 0
62 -171 732 0
-62 -171 -732 0
732 280 -389 0
-732 280 389 0
732 -280 389 0
-732 -280 -389 0
280 -733 0
732 -733 0
-280 -732 733 0
171 -734 0
62 -734 0
-171 -62 734 0
-733 499 0
-734 499 0
733 734 -499 0
63 172 -735 0
-63 172 735 0
63 -172 735 0
-63 -172 -735 0
735 281 -390 0
-735 281 390 0
735 -281 390 0
-735 -281 -390 0
281 -736 0
735 -736 0
-281 -735 736 0
172 -737 0
63 -737 0
-172 -63 737 0
-736 500 0
-737 500 0
736 737 -500 0
64 173 -738 0
-64 173 738 0
64 -173 738 0
-64 -173 -738 0
738 282 -391 0
-738 282 391 0
738 -282 391 0
-738 -282 -391 0
282 -739 0
738 -739 0
-282 -738 739 0
173 -740 0
64 -740 0
-173 -64 740 0
-739 501 0
-740 501 0
739 740 -501 0
65 174 -741 0
-65 174 741 0
65 -174 741 0
-65 -174 -741 0
741 283 -392 0
-741 283 392 0
741 -283 392 0
-741 -283 -392 0
283 -742 0
741 -742 0
-283 -741 742 0
174 -743 0
65 -743 0
-174 -65 743 0
-742 502 0
-743 502 0
742 743 -502 0
66 175 -744 0
-66 175 744 0
66 -175 744 0
-66 -175 -744 0
744 284 -393 0
-744 284 393 0
744 -284 393 0
-744 -284 -393 0
284 -745 0
744 -745 0
-284 -744 745 0
175 -746 0
66 -746 0
-175 -66 746 0
-745 503 0
-746 503 0
745 746 -503 0
67 176 -747 0
-67 176 747 0
67 -176 747 0
-67 -176 -747 0
747 285 -394 0
-747 285 394 0
747 -285 394 0
-747 -285 -394 0
285 -748 0
747 -748 0
-285 -747 748 0
176 -749 0
67 -749 0
-176 -67 749 0
-748 504 0
-749 504 0
748 749 -504 0
68 177 -750 0
-68 177 750 0
68 -177 750 0
-68 -177 -750 0
750 286 -395 0
-750 286 395 0
750 -286 395 0
-750 -286 -395 0
286 -751 0
750 -751 0
-286 -750 751 0
177 -752 0
68 -752 0
-177 -68 752 0
-751 505 0
-752 505 0
751 752 -505 0
69 178 -753 0
-69 178 753 0
69 -178 753 0
-69 -178 -753 0
753 287 -396 0
-753 287 396 0
753 -287 396 0
-753 -287 -396 0
287 -754 0
753 -754 0
-287 -753 754 0
178 -755 0
69 -755 0
-178 -69 755 0
-754 506 0
-755 506 0
754 755 -506 0
70 179 -756 0
-70 179 756 0
70 -179 756 0
-70 -179 -756 0
756 288 -397 0
-756 288 397 0
756 -288 397 0
-756 -288 -397 0
288 -757 0
756 -757 0
-288 -756 757 0
179 -758 0
70 -758 0
-179 -70 758 0
-757 507 0
-758 507 0
757 758 -507 0
71 180 -759 0
-71 180 759 0
71 -180 759 0
-71 -180 -759 0
759 289 -398 0
-759 289 398 0
759 -289 398 0
-759 -289 -398 0
289 -760 0
759 -760 0
-289 -759 760 0
180 -761 0
71 -761 0
-180 -71 761 0
-760 508 0
-761 508 0
760 761 -508 0
72 181 -762 0
-72 181 762 0
72 -181 762 0
-72 -181 -762 0
762 290 -399 0
-762 290 399 0
762 -290 399 0
-762 -290 -399 0
290 -763 0
762 -763 0
-290 -762 763 0
181 -764 0
72 -764 0
-181 -72 764 0
-763 509 0
-764 509 0
763 764 -509 0
73 182 -765 0
-73 182 765 0
73 -182 765 0
-73 -182 -765 0
765 291 -400 0
-765 291 400 0
765 -291 400 0
-765 -291 -400 0
291 -766 0
765 -766 0
-291 -765 766 0
182 -767 0
73 -767 0
-182 -73 767 0
-766 510 0
-767 510 0
766 767 -510 0
74 183 -768 0
-74 183 768 0
74 -183 768 0
-74 -183 -768 0
768 292 -401 0
-768 292 401 0
768 -292 401 0
-768 -292 -401 0
292 -769 0
768 -769 0
-292 -768 769 0
183 -770 0
74 -770 0
-183 -74 770 0
-769 511 0
-770 511 0
769 770 -511 0
75 184 -771 0
-75 184 771 0
75 -184 771 0
-75 -184 -771 0
771 293 -402 0
-771 293 402 0
771 -293 402 0
-771 -293 -402 0
293 -772 0
771 -772 0
-293 -771 772 0
184 -773 0
75 -773 0
-184 -75 773 0
-772 512 0
-773 512 0
772 773 -512 0
76 185 -774 0
-76 185 774 0
76 -185 774 0
-76 -185 -774 0
774 294 -403 0
-774 294 403 0
774 -294 403 0
-774 -294 -403 0
294 -775 0
774 -775 0
-294 -774 775 0
185 -776 0
76 -776 0
-185 -76 776 0
-775 513 0
-776 513 0
775 776 -513 0
77 186 -777 0
-77 186 777 0
77 -186 777 0
-77 -186 -777 0
777 295 -404 0
-777 295 404 0
777 -295 404 0
-777 -295 -404 0
295 -778 0
777 -778 0
-295 -777 778 0
186 -779 0
77 -779 0
-186 -77 779 0
-778 514 0
-779 514 0
778 779 -514 0
78 187 -780 0
-78 187 780 0
78 -187 780 0
-78 -187 -780 0
780 296 -405 0
-780 296 405 0
780 -296 405 0
-780 -296 -405 0
296 -781 0
780 -781 0
-296 -780 781 0
187 -782 0
78 -782 0
-187 -78 782 0
-781 515 0
-782 515 0
781 782 -515 0
79 188 -783 0
-79 188 783 0
79 -188 783 0
-79 -188 -783 0
783 297 -406 0
-783 297 406 0
783 -297 406 0
-783 -297 -406 0
297 -784 0
783 -784 0
-297 -783 784 0
188 -785 0
79 -785 0
-188 -79 785 0
-784 516 0
-785 516 0
784 785 -516 0
80 189 -786 0
-80 189 786 0
80 -189 786 0
-80 -189 -786 0
786 298 -407 0
-786 298 407 0
786 -298 407 0
-786 -298 -407 0
298 -787 0
786 -787 0
-298 -786 787 0
189 -788 0
80 -788 0
-189 -80 788 0
-787 517 0
-788 517 0
787 788 -517 0
81 190 -789 0
-81 190 789 0
81 -190 789 0
-81 -190 -789 0
789 299 -408 0
-789 299 408 0
789 -299 408 0
-789 -299 -408 0
299 -790 0
789 -790 0
-299 -789 790 0
190 -791 0
81 -791 0
-190 -81 791 0
-790 518 0
-791 518 0
790 791 -518 0
82 191 -792 0
-82 191 792 0
82 -191 792 0
-82 -191 -792 0
792 300 -409 0
-792 300 409 0
792 -300 409 0
-792 -300 -409 0
300 -793 0
792 -793 0
-300 -792 793 0
191 -794 0
82 -794 0
-191 -82 794 0
-793 519 0
-794 519 0
793 794 -519 0
83 192 -795 0
-83 192 795 0
83 -192 795 0
-83 -192 -795 0
795 301 -410 0
-795 301 410 0
795 -301 410 0
-795 -301 -410 0
301 -796 0
795 -796 0
-301 -795 796 0
192 -797 0
83 -797 0
-192 -83 797 0
-796 520 0
-797 520 0
796 797 -520 0
84 193 -798 0
-84 193 798 0
84 -193 798 0
-84 -193 -798 0
798 302 -411 0
-798 302 411 0
798 -302 411 0
-798 -302 -411 0
302 -799 0
798 -799 0
-302 -798 799 0
193 -800 0
84 -800 0
-193 -84 800 0
-799 521 0
-800 521 0
799 800 -521 0
85 194 -801 0
-85 194 801 0
85 -194 801 0
-85 -194 -801 0
801 303 -412 0
-801 303 412 0
801 -303 412 0
-801 -303 -412 0
303 -802 0
801 -802 0
-303 -801 802 0
194 -803 0
85 -803 0
-194 -85 803 0
-802 522 0
-803 522 0
802 803 -522 0
86 195 -804 0
-86 195 804 0
86 -195 804 0
-86 -195 -804 0
804 304 -413 0
-804 304 413 0
804 -304 413 0
-804 -304 -413 0
304 -805 0
804 -805 0
-304 -804 805 0
195 -806 0
86 -806 0
-195 -86 806 0
-805 523 0
-806 523 0
805 806 -523 0
87 196 -807 0
-87 196 807 0
87 -196 807 0
-87 -196 -807 0
807 305 -414 0
-807 305 414 0
807 -305 414 0
-807 -305 -414 0
305 -808 0
807 -808 0
-305 -807 808 0
196 -809 0
87 -809 0
-196 -87 809 0
-808 524 0
-809 524 0
808 809 -524 0
88 197 -810 0
-88 197 810 0
88 -197 810 0
-88 -197 -810 0
810 306 -415 0
-810 306 415 0
810 -306 415 0
-810 -306 -415 0
306 -811 0
810 -811 0
-306 -810 811 0
197 -812 0
88 -812 0
-197 -88 812 0
-811 525 0
-812 525 0
811 812 -525 0
89 198 -813 0
-89 198 813 0
89 -198 813 0
-89 -198 -813 0
813 307 -416 0
-813 307 416 0
813 -307 416 0
-813 -307 -416 0
307 -814 0
813 -814 0
-307 -813 814 0
198 -815 0
89 -815 0
-198 -89 815 0
-814 526 0
-815 526 0
814 815 -526 0
90 199 -816 0
-90 199 816 0
90 -199 816 0
-90 -199 -816 0
816 308 -417 0
-816 308 417 0
816 -308 417 0
-816 -308 -417 0
308 -817 0
816 -817 0
-308 -816 817 0
199 -818 0
90 -818 0
-199 -90 818 0
-817 527 0
-818 527 0
817 818 -527 0
91 200 -819 0
-91 200 819 0
91 -200 819 0
-91 -200 -819 0
819 309 -418 0
-819 309 418 0
819 -309 418 0
-819 -309 -418 0
309 -820 0
819 -820 0
-309 -819 820 0
200 -821 0
91 -821 0
-200 -91 821 0
-820 528 0
-821 528 0
820 821 -528 0
92 201 -822 0
-92 201 822 0
92 -201 822 0
-92 -201 -822 0
822 310 -419 0
-822 310 419 0
822 -310 419 0
-822 -310 -419 0
310 -823 0
822 -823 0
-310 -822 823 0
201 -824 0
92 -824 0
-201 -92 824 0
-823 529 0
-824 529 0
823 824 -529 0
93 202 -825 0
-93 202 825 0
93 -202 825 0
-93 -202 -825 0
825 311 -420 0
-825 311 420 0
825 -311 420 0
-825 -311 -420 0
311 -826 0
825 -826 0
-311 -825 826 0
202 -827 0
93 -827 0
-202 -93 827 0
-826 530 0
-827 530 0
826 827 -530 0
94 203 -828 0
-94 203 828 0
94 -203 828 0
-94 -203 -828 0
828 312 -421 0
-828 312 421 0
828 -312 421 0
-828 -312 -421 0
312 -829 0
828 -829 0
-312 -828 829 0
203 -830 0
94 -830 0
-203 -94 830 0
-829 531 0
-830 531 0
829 830 -531 0
95 204 -831 0
-95 204 831 0
95 -204 831 0
-95 -204 -831 0
831 313 -422 0
-831 313 422 0
831 -313 422 0
-831 -313 -422 0
313 -832 0
831 -832 0
-313 -831 832 0
204 -833 0
95 -833 0
-204 -95 833 0
-832 532 0
-833 532 0
832 833 -532 0
96 205 -834 0
-96 205 834 0
96 -205 834 0
-96 -205 -834 0
834 314 -423 0
-834 314 423 0
834 -314 423 0
-834 -314 -423 0
314 -835 0
834 -835 0
-314 -834 835 0
205 -836 0
96 -836 0
-205 -96 836 0
-835 533 0
-836 533 0
835 836 -533 0
97 206 -837 0
-97 206 837 0
97 -206 837 0
-97 -206 -837 0
837 315 -424 0
-837 315 424 0
837 -315 424 0
-837 -315 -424 0
315 -838 0
837 -838 0
-315 -837 838 0
206 -839 0
97 -839 0
-206 -97 839 0
-838 534 0
-839 534 0
838 839 -534 0
98 207 -840 0
-98 207 840 0
98 -207 840 0
-98 -207 -840 0
840 316 -425 0
-840 316 425 0
840 -316 425 0
-840 -316 -425 0
316 -841 0
840 -841 0
-316 -840 841 0
207 -842 0
98 -842 0
-207 -98 842 0
-841 535 0
-842 535 0
841 842 -535 0
99 208 -843 0
-99 208 843 0
99 -208 843 0
-99 -208 -843 0
843 317 -426 0
-843 317 426 0
843 -317 426 0
-843 -317 -426 0
317 -844 0
843 -844 0
-317 -843 844 0
208 -845 0
99 -845 0
-208 -99 845 0
-844 536 0
-845 536 0
844 845 -536 0
100 209 -846 0
-100 209 846 0
100 -209 846 0
-100 -209 -846 0
846 318 -427 0
-846 318 427 0
846 -318 427 0
-846 -318 -427 0
318 -847 0
846 -847 0
-318 -846 847 0
209 -848 0
100 -848 0
-209 -100 848 0
-847 537 0
-848 537 0
847 848 -537 0
101 210 -849 0
-101 210 849 0
101 -210 849 0
-101 -210 -849 0
849 319 -428 0
-849 319 428 0
849 -319 428 0
-849 -319 -428 0
319 -850 0
849 -850 0
-319 -849 850 0
210 -851 0
101 -851 0
-210 -101 851 0
-850 538 0
-851 538 0
850 851 -538 0
102 211 -852 0
-102 211 852 0
102 -211 852 0
-102 -211 -852 0
852 320 -429 0
-852 320 429 0
852 -320 429 0
-852 -320 -429 0
320 -853 0
852 -853 0
-320 -852 853 0
211 -854 0
102 -854 0
-211 -102 854 0
-853 539 0
-854 539 0
853 854 -539 0
103 212 -855 0
-103 212 855 0
103 -212 855 0
-103 -212 -855 0
855 321 -430 0
-855 321 430 0
855 -321 430 0
-855 -321 -430 0
321 -856 0
855 -856 0
-321 -855 856 0
212 -857 0
103 -857 0
-212 -103 857 0
-856 540 0
-857 540 0
856 857 -540 0
104 213 -858 0
-104 213 858 0
104 -213 858 0
-104 -213 -858 0
858 322 -431 0
-858 322 431 0
858 -322 431 0
-858 -322 -431 0
322 -859 0
858 -859 0
-322 -858 859 0
213 -860 0
104 -860 0
-213 -104 860 0
-859 541 0
-860 541 0
859 860 -541 0
105 214 -861 0
-105 214 861 0
105 -214 861 0
-105 -214 -861 0
861 323 -432 0
-861 323 432 0
861 -323 432 0
-861 -323 -432 0
323 -862 0
861 -862 0
-323 -861 862 0
214 -863 0
105 -863 0
-214 -105 863 0
-862 542 0
-863 542 0
862 863 -542 0
106 215 -864 0
-106 215 864 0
106 -215 864 0
-106 -215 -864 0
864 324 -433 0
-864 324 433 0
864 -324 433 0
-864 -324 -433 0
324 -865 0
864 -865 0
-324 -864 865 0
215 -866 0
106 -866 0
-215 -106 866 0
-865 543 0
-866 543 0
865 866 -543 0
107 216 -867 0
-107 216 867 0
107 -216 867 0
-107 -216 -867 0
867 325 -434 0
-867 325 434 0
867 -325 434 0
-867 -325 -434 0
325 -868 0
867 -868 0
-325 -867 868 0
216 -869 0
107 -869 0
-216 -107 869 0
-868 544 0
-869 544 0
868 869 -544 0
108 217 -870 0
-108 217 870 0
108 -217 870 0
-108 -217 -870 0
870 326 -435 0
-870 326 435 0
870 -326 435 0
-870 -326 -435 0
326 -871 0
870 -871 0
-326 -870 871 0
217 -872 0
108 -872 0
-217 -108 872 0
-871 545 0
-872 545 0
871 872 -545 0
109 218 -873 0
-109 218 873 0
109 -218 873 0
-109 -218 -873 0
873 327 -436 0
-873 327 436 0
873 -327 436 0
-873 -327 -436 0
327 -874 0
873 -874 0
-327 -873 874 0
218 -875 0
109 -875 0
-218 -109 875 0
-874 546 0
-875 546 0
874 875 -546 0
